(set-logic LIA)

(declare-const y Int)
(declare-const y! Int)
(declare-const x Int)
(declare-const x! Int)
(declare-const tmp Int)
(declare-const tmp! Int)

(declare-const y_35 Int)
(declare-const y_28 Int)
(declare-const y_0 Int)
(declare-const x_34 Int)
(declare-const x_27 Int)
(declare-const x_0 Int)

(define-fun inv-f((tmp Int)(x Int)(y Int)) Bool
